(set-logic QF_S)
(declare-fun var_0xINPUT_233109 () String)
(assert (and (= (len var_0xINPUT_233109) 0) (= (len var_0xINPUT_233109) 0) (not (= var_0xINPUT_233109 "Example:")) (not (= var_0xINPUT_233109 "4PH2ujcENG"))))
(check-sat var_0xINPUT_233109)